words_hard_train/524.qaiger
aag 118 15 0 1 103
2
4
8
12
16
20
24
42
52
56
70
86
102
118
134
236
6 3 5
10 6 9
14 10 13
18 14 17
22 18 21
26 22 25
28 2 4
30 29 9
32 31 12
34 33 17
36 34 21
38 37 24
40 27 39
44 41 42
46 40 43
48 45 47
50 7 29
54 52 3
58 55 57
60 50 59
62 54 56
64 61 63
66 28 8
68 67 31
72 68 71
74 69 70
76 73 75
78 65 76
80 79 75
82 30 13
84 83 33
88 85 87
90 84 86
92 89 91
94 81 92
96 95 91
98 32 16
100 99 35
104 100 103
106 101 102
108 105 107
110 97 108
112 111 107
114 35 20
116 115 37
120 116 119
122 117 118
124 121 123
126 113 124
128 127 123
130 36 25
132 131 39
136 133 135
138 132 134
140 137 139
142 129 140
144 143 139
146 48 144
148 49 145
150 147 149
152 19 20
154 153 23
156 112 125
158 157 127
160 155 158
162 7 8
164 163 11
166 64 77
168 167 79
170 165 168
172 164 169
174 171 173
176 154 159
178 174 177
180 161 178
182 59 63
184 183 52
186 11 12
188 187 15
190 80 93
192 191 95
194 188 193
196 189 192
198 195 197
200 184 198
202 15 16
204 203 19
206 96 109
208 207 111
210 204 209
212 205 208
214 211 213
216 200 214
218 180 216
220 150 218
222 23 24
224 223 27
226 128 141
228 227 143
230 225 229
232 224 228
234 231 233
236 220 235
i0 1 x2[0]
i1 1 x2[1]
i2 1 x2[2]
i3 1 x2[3]
i4 1 x2[4]
i5 1 x2[5]
i6 1 x2[6]
i7 2 y1[7]
i8 2 y1[0]
i9 2 y1[1]
i10 2 y1[2]
i11 2 y1[3]
i12 2 y1[4]
i13 2 y1[5]
i14 2 y1[6]
o0 bool[0]
c
simplified
  ==
    add
      2 y1
      add
        -75
        1 x2
    unary minus
      1 x2
