words_hard_train/524.qaiger.qdimacs
p cnf 118 310
a 1 2 4 6 8 10 12 0
e 3 5 7 9 11 13 14 15 16 17 18 19 20 21 22 23 24 25 26 27 28 29 30 31 32 33 34 35 36 37 38 39 40 41 42 43 44 45 46 47 48 49 50 51 52 53 54 55 56 57 58 59 60 61 62 63 64 65 66 67 68 69 70 71 72 73 74 75 76 77 78 79 80 81 82 83 84 85 86 87 88 89 90 91 92 93 94 95 96 97 98 99 100 101 102 103 104 105 106 107 108 109 110 111 112 113 114 115 116 117 118 0
1 2 3 0
-1 -3 0
-2 -3 0
-3 4 5 0
3 -5 0
-4 -5 0
-5 6 7 0
5 -7 0
-6 -7 0
-7 8 9 0
7 -9 0
-8 -9 0
-9 10 11 0
9 -11 0
-10 -11 0
-11 12 13 0
11 -13 0
-12 -13 0
-1 -2 14 0
1 -14 0
2 -14 0
14 4 15 0
-14 -15 0
-4 -15 0
15 -6 16 0
-15 -16 0
6 -16 0
16 8 17 0
-16 -17 0
-8 -17 0
-17 10 18 0
17 -18 0
-10 -18 0
18 -12 19 0
-18 -19 0
12 -19 0
13 19 20 0
-13 -20 0
-19 -20 0
20 -21 22 0
-20 -22 0
21 -22 0
-20 21 23 0
20 -23 0
-21 -23 0
22 23 24 0
-22 -24 0
-23 -24 0
3 14 25 0
-3 -25 0
-14 -25 0
-26 1 27 0
26 -27 0
-1 -27 0
27 28 29 0
-27 -29 0
-28 -29 0
-25 29 30 0
25 -30 0
-29 -30 0
-27 -28 31 0
27 -31 0
28 -31 0
30 31 32 0
-30 -32 0
-31 -32 0
-14 -4 33 0
14 -33 0
4 -33 0
33 15 34 0
-33 -34 0
-15 -34 0
-34 35 36 0
34 -36 0
-35 -36 0
34 -35 37 0
-34 -37 0
35 -37 0
36 37 38 0
-36 -38 0
-37 -38 0
32 -38 39 0
-32 -39 0
38 -39 0
39 37 40 0
-39 -40 0
-37 -40 0
-15 6 41 0
15 -41 0
-6 -41 0
41 16 42 0
-41 -42 0
-16 -42 0
42 43 44 0
-42 -44 0
-43 -44 0
-42 -43 45 0
42 -45 0
43 -45 0
44 45 46 0
-44 -46 0
-45 -46 0
40 -46 47 0
-40 -47 0
46 -47 0
47 45 48 0
-47 -48 0
-45 -48 0
-16 -8 49 0
16 -49 0
8 -49 0
49 17 50 0
-49 -50 0
-17 -50 0
-50 51 52 0
50 -52 0
-51 -52 0
50 -51 53 0
-50 -53 0
51 -53 0
52 53 54 0
-52 -54 0
-53 -54 0
48 -54 55 0
-48 -55 0
54 -55 0
55 53 56 0
-55 -56 0
-53 -56 0
17 -10 57 0
-17 -57 0
10 -57 0
57 18 58 0
-57 -58 0
-18 -58 0
-58 59 60 0
58 -60 0
-59 -60 0
58 -59 61 0
-58 -61 0
59 -61 0
60 61 62 0
-60 -62 0
-61 -62 0
56 -62 63 0
-56 -63 0
62 -63 0
63 61 64 0
-63 -64 0
-61 -64 0
-18 12 65 0
18 -65 0
-12 -65 0
65 19 66 0
-65 -66 0
-19 -66 0
66 67 68 0
-66 -68 0
-67 -68 0
-66 -67 69 0
66 -69 0
67 -69 0
68 69 70 0
-68 -70 0
-69 -70 0
64 -70 71 0
-64 -71 0
70 -71 0
71 69 72 0
-71 -72 0
-69 -72 0
-24 -72 73 0
24 -73 0
72 -73 0
24 72 74 0
-24 -74 0
-72 -74 0
73 74 75 0
-73 -75 0
-74 -75 0
9 -10 76 0
-9 -76 0
10 -76 0
76 11 77 0
-76 -77 0
-11 -77 0
-56 62 78 0
56 -78 0
-62 -78 0
78 63 79 0
-78 -79 0
-63 -79 0
77 -79 80 0
-77 -80 0
79 -80 0
3 -4 81 0
-3 -81 0
4 -81 0
81 5 82 0
-81 -82 0
-5 -82 0
-32 38 83 0
32 -83 0
-38 -83 0
83 39 84 0
-83 -84 0
-39 -84 0
82 -84 85 0
-82 -85 0
84 -85 0
-82 84 86 0
82 -86 0
-84 -86 0
85 86 87 0
-85 -87 0
-86 -87 0
-77 79 88 0
77 -88 0
-79 -88 0
-87 88 89 0
87 -89 0
-88 -89 0
80 -89 90 0
-80 -90 0
89 -90 0
29 31 91 0
-29 -91 0
-31 -91 0
91 -26 92 0
-91 -92 0
26 -92 0
5 -6 93 0
-5 -93 0
6 -93 0
93 7 94 0
-93 -94 0
-7 -94 0
-40 46 95 0
40 -95 0
-46 -95 0
95 47 96 0
-95 -96 0
-47 -96 0
-94 96 97 0
94 -97 0
-96 -97 0
94 -96 98 0
-94 -98 0
96 -98 0
97 98 99 0
-97 -99 0
-98 -99 0
-92 -99 100 0
92 -100 0
99 -100 0
7 -8 101 0
-7 -101 0
8 -101 0
101 9 102 0
-101 -102 0
-9 -102 0
-48 54 103 0
48 -103 0
-54 -103 0
103 55 104 0
-103 -104 0
-55 -104 0
-102 104 105 0
102 -105 0
-104 -105 0
102 -104 106 0
-102 -106 0
104 -106 0
105 106 107 0
-105 -107 0
-106 -107 0
-100 -107 108 0
100 -108 0
107 -108 0
-90 -108 109 0
90 -109 0
108 -109 0
-75 -109 110 0
75 -110 0
109 -110 0
11 -12 111 0
-11 -111 0
12 -111 0
111 13 112 0
-111 -112 0
-13 -112 0
-64 70 113 0
64 -113 0
-70 -113 0
113 71 114 0
-113 -114 0
-71 -114 0
112 114 115 0
-112 -115 0
-114 -115 0
-112 -114 116 0
112 -116 0
114 -116 0
115 116 117 0
-115 -117 0
-116 -117 0
-110 117 118 0
110 -118 0
-117 -118 0
118 0
